c sliceFM_02.cnf
p cnf 28 17
1 0 
-26  -27 0
 -18  -20 0
 20  -27 0
 -4  1 0
 4  -19 0
 20  -26 0
 -4  18  19  20 0
 4  -20 0
 4  -18 0
 -20  -19 0
 4  -1 0
 -26  -28 0
 -18  -19 0
 20  -28 0
 -27  -28 0
 -20  26  27  28 0
